20
24	271	139	57	10
1	184	114	74	74
27	47	215	37	62
8	147	223	13	48
13	167	187	89	62
3	233	164	19	11
18	20	163	21	33
11	332	178	72	76
17	6	105	46	93
3	75	148	75	75
24	183	118	26	0
28	27	172	12	11
23	2	104	25	14
20	295	231	92	8
6	126	106	59	37
21	218	158	100	62
25	332	172	46	66
19	148	173	48	84
22	155	228	55	45
20	307	118	24	59
